\ Model VRP
\ LP format - for model browsing. Use MPS format to capture full model detail.
Minimize
  9 X0_1_0 + 14 X0_2_0 + 21 X0_3_0 + 23 X0_4_0 + 22 X0_5_0 + 25 X0_6_0
   + 32 X0_7_0 + 36 X0_8_0 + 38 X0_9_0 + 42 X0_10_0 + 50 X0_11_0
   + 52 X0_12_0 + 9 X1_0_0 + 5 X1_2_0 + 12 X1_3_0 + 22 X1_4_0 + 21 X1_5_0
   + 24 X1_6_0 + 31 X1_7_0 + 35 X1_8_0 + 37 X1_9_0 + 41 X1_10_0
   + 49 X1_11_0 + 51 X1_12_0 + 14 X2_0_0 + 5 X2_1_0 + 7 X2_3_0 + 17 X2_4_0
   + 16 X2_5_0 + 23 X2_6_0 + 26 X2_7_0 + 30 X2_8_0 + 36 X2_9_0 + 36 X2_10_0
   + 44 X2_11_0 + 46 X2_12_0 + 21 X3_0_0 + 12 X3_1_0 + 7 X3_2_0 + 10 X3_4_0
   + 21 X3_5_0 + 30 X3_6_0 + 27 X3_7_0 + 37 X3_8_0 + 43 X3_9_0 + 31 X3_10_0
   + 37 X3_11_0 + 39 X3_12_0 + 23 X4_0_0 + 22 X4_1_0 + 17 X4_2_0
   + 10 X4_3_0 + 19 X4_5_0 + 28 X4_6_0 + 25 X4_7_0 + 35 X4_8_0 + 41 X4_9_0
   + 29 X4_10_0 + 31 X4_11_0 + 29 X4_12_0 + 22 X5_0_0 + 21 X5_1_0
   + 16 X5_2_0 + 21 X5_3_0 + 19 X5_4_0 + 9 X5_6_0 + 10 X5_7_0 + 16 X5_8_0
   + 22 X5_9_0 + 20 X5_10_0 + 28 X5_11_0 + 30 X5_12_0 + 25 X6_0_0
   + 24 X6_1_0 + 23 X6_2_0 + 30 X6_3_0 + 28 X6_4_0 + 9 X6_5_0 + 7 X6_7_0
   + 11 X6_8_0 + 13 X6_9_0 + 17 X6_10_0 + 25 X6_11_0 + 27 X6_12_0
   + 32 X7_0_0 + 31 X7_1_0 + 26 X7_2_0 + 27 X7_3_0 + 25 X7_4_0 + 10 X7_5_0
   + 7 X7_6_0 + 10 X7_8_0 + 16 X7_9_0 + 10 X7_10_0 + 18 X7_11_0
   + 20 X7_12_0 + 36 X8_0_0 + 35 X8_1_0 + 30 X8_2_0 + 37 X8_3_0 + 35 X8_4_0
   + 16 X8_5_0 + 11 X8_6_0 + 10 X8_7_0 + 6 X8_9_0 + 6 X8_10_0 + 14 X8_11_0
   + 16 X8_12_0 + 38 X9_0_0 + 37 X9_1_0 + 36 X9_2_0 + 43 X9_3_0 + 41 X9_4_0
   + 22 X9_5_0 + 13 X9_6_0 + 16 X9_7_0 + 6 X9_8_0 + 12 X9_10_0 + 12 X9_11_0
   + 20 X9_12_0 + 42 X10_0_0 + 41 X10_1_0 + 36 X10_2_0 + 31 X10_3_0
   + 29 X10_4_0 + 20 X10_5_0 + 17 X10_6_0 + 10 X10_7_0 + 6 X10_8_0
   + 12 X10_9_0 + 8 X10_11_0 + 10 X10_12_0 + 50 X11_0_0 + 49 X11_1_0
   + 44 X11_2_0 + 37 X11_3_0 + 31 X11_4_0 + 28 X11_5_0 + 25 X11_6_0
   + 18 X11_7_0 + 14 X11_8_0 + 12 X11_9_0 + 8 X11_10_0 + 10 X11_12_0
   + 52 X12_0_0 + 51 X12_1_0 + 46 X12_2_0 + 39 X12_3_0 + 29 X12_4_0
   + 30 X12_5_0 + 27 X12_6_0 + 20 X12_7_0 + 16 X12_8_0 + 20 X12_9_0
   + 10 X12_10_0 + 10 X12_11_0
Subject To
 Constraint1_1_0: X0_1_0 - X1_0_0 - X1_2_0 - X1_3_0 - X1_4_0 - X1_5_0
   - X1_6_0 - X1_7_0 - X1_8_0 - X1_9_0 - X1_10_0 - X1_11_0 - X1_12_0
   + X2_1_0 + X3_1_0 + X4_1_0 + X5_1_0 + X6_1_0 + X7_1_0 + X8_1_0 + X9_1_0
   + X10_1_0 + X11_1_0 + X12_1_0 = 0
 Constraint1_2_0: X0_2_0 + X1_2_0 - X2_0_0 - X2_1_0 - X2_3_0 - X2_4_0
   - X2_5_0 - X2_6_0 - X2_7_0 - X2_8_0 - X2_9_0 - X2_10_0 - X2_11_0
   - X2_12_0 + X3_2_0 + X4_2_0 + X5_2_0 + X6_2_0 + X7_2_0 + X8_2_0 + X9_2_0
   + X10_2_0 + X11_2_0 + X12_2_0 = 0
 Constraint1_3_0: X0_3_0 + X1_3_0 + X2_3_0 - X3_0_0 - X3_1_0 - X3_2_0
   - X3_4_0 - X3_5_0 - X3_6_0 - X3_7_0 - X3_8_0 - X3_9_0 - X3_10_0
   - X3_11_0 - X3_12_0 + X4_3_0 + X5_3_0 + X6_3_0 + X7_3_0 + X8_3_0
   + X9_3_0 + X10_3_0 + X11_3_0 + X12_3_0 = 0
 Constraint1_4_0: X0_4_0 + X1_4_0 + X2_4_0 + X3_4_0 - X4_0_0 - X4_1_0
   - X4_2_0 - X4_3_0 - X4_5_0 - X4_6_0 - X4_7_0 - X4_8_0 - X4_9_0 - X4_10_0
   - X4_11_0 - X4_12_0 + X5_4_0 + X6_4_0 + X7_4_0 + X8_4_0 + X9_4_0
   + X10_4_0 + X11_4_0 + X12_4_0 = 0
 Constraint1_5_0: X0_5_0 + X1_5_0 + X2_5_0 + X3_5_0 + X4_5_0 - X5_0_0
   - X5_1_0 - X5_2_0 - X5_3_0 - X5_4_0 - X5_6_0 - X5_7_0 - X5_8_0 - X5_9_0
   - X5_10_0 - X5_11_0 - X5_12_0 + X6_5_0 + X7_5_0 + X8_5_0 + X9_5_0
   + X10_5_0 + X11_5_0 + X12_5_0 = 0
 Constraint1_6_0: X0_6_0 + X1_6_0 + X2_6_0 + X3_6_0 + X4_6_0 + X5_6_0
   - X6_0_0 - X6_1_0 - X6_2_0 - X6_3_0 - X6_4_0 - X6_5_0 - X6_7_0 - X6_8_0
   - X6_9_0 - X6_10_0 - X6_11_0 - X6_12_0 + X7_6_0 + X8_6_0 + X9_6_0
   + X10_6_0 + X11_6_0 + X12_6_0 = 0
 Constraint1_7_0: X0_7_0 + X1_7_0 + X2_7_0 + X3_7_0 + X4_7_0 + X5_7_0
   + X6_7_0 - X7_0_0 - X7_1_0 - X7_2_0 - X7_3_0 - X7_4_0 - X7_5_0 - X7_6_0
   - X7_8_0 - X7_9_0 - X7_10_0 - X7_11_0 - X7_12_0 + X8_7_0 + X9_7_0
   + X10_7_0 + X11_7_0 + X12_7_0 = 0
 Constraint1_8_0: X0_8_0 + X1_8_0 + X2_8_0 + X3_8_0 + X4_8_0 + X5_8_0
   + X6_8_0 + X7_8_0 - X8_0_0 - X8_1_0 - X8_2_0 - X8_3_0 - X8_4_0 - X8_5_0
   - X8_6_0 - X8_7_0 - X8_9_0 - X8_10_0 - X8_11_0 - X8_12_0 + X9_8_0
   + X10_8_0 + X11_8_0 + X12_8_0 = 0
 Constraint1_9_0: X0_9_0 + X1_9_0 + X2_9_0 + X3_9_0 + X4_9_0 + X5_9_0
   + X6_9_0 + X7_9_0 + X8_9_0 - X9_0_0 - X9_1_0 - X9_2_0 - X9_3_0 - X9_4_0
   - X9_5_0 - X9_6_0 - X9_7_0 - X9_8_0 - X9_10_0 - X9_11_0 - X9_12_0
   + X10_9_0 + X11_9_0 + X12_9_0 = 0
 Constraint1_10_0: X0_10_0 + X1_10_0 + X2_10_0 + X3_10_0 + X4_10_0
   + X5_10_0 + X6_10_0 + X7_10_0 + X8_10_0 + X9_10_0 - X10_0_0 - X10_1_0
   - X10_2_0 - X10_3_0 - X10_4_0 - X10_5_0 - X10_6_0 - X10_7_0 - X10_8_0
   - X10_9_0 - X10_11_0 - X10_12_0 + X11_10_0 + X12_10_0 = 0
 Constraint1_11_0: X0_11_0 + X1_11_0 + X2_11_0 + X3_11_0 + X4_11_0
   + X5_11_0 + X6_11_0 + X7_11_0 + X8_11_0 + X9_11_0 + X10_11_0 - X11_0_0
   - X11_1_0 - X11_2_0 - X11_3_0 - X11_4_0 - X11_5_0 - X11_6_0 - X11_7_0
   - X11_8_0 - X11_9_0 - X11_10_0 - X11_12_0 + X12_11_0 = 0
 Constraint1_12_0: X0_12_0 + X1_12_0 + X2_12_0 + X3_12_0 + X4_12_0
   + X5_12_0 + X6_12_0 + X7_12_0 + X8_12_0 + X9_12_0 + X10_12_0 + X11_12_0
   - X12_0_0 - X12_1_0 - X12_2_0 - X12_3_0 - X12_4_0 - X12_5_0 - X12_6_0
   - X12_7_0 - X12_8_0 - X12_9_0 - X12_10_0 - X12_11_0 = 0
 Constraint2_1: X0_1_0 + X2_1_0 + X3_1_0 + X4_1_0 + X5_1_0 + X6_1_0
   + X7_1_0 + X8_1_0 + X9_1_0 + X10_1_0 + X11_1_0 + X12_1_0 = 1
 Constraint2_2: X0_2_0 + X1_2_0 + X3_2_0 + X4_2_0 + X5_2_0 + X6_2_0
   + X7_2_0 + X8_2_0 + X9_2_0 + X10_2_0 + X11_2_0 + X12_2_0 = 1
 Constraint2_3: X0_3_0 + X1_3_0 + X2_3_0 + X4_3_0 + X5_3_0 + X6_3_0
   + X7_3_0 + X8_3_0 + X9_3_0 + X10_3_0 + X11_3_0 + X12_3_0 = 1
 Constraint2_4: X0_4_0 + X1_4_0 + X2_4_0 + X3_4_0 + X5_4_0 + X6_4_0
   + X7_4_0 + X8_4_0 + X9_4_0 + X10_4_0 + X11_4_0 + X12_4_0 = 1
 Constraint2_5: X0_5_0 + X1_5_0 + X2_5_0 + X3_5_0 + X4_5_0 + X6_5_0
   + X7_5_0 + X8_5_0 + X9_5_0 + X10_5_0 + X11_5_0 + X12_5_0 = 1
 Constraint2_6: X0_6_0 + X1_6_0 + X2_6_0 + X3_6_0 + X4_6_0 + X5_6_0
   + X7_6_0 + X8_6_0 + X9_6_0 + X10_6_0 + X11_6_0 + X12_6_0 = 1
 Constraint2_7: X0_7_0 + X1_7_0 + X2_7_0 + X3_7_0 + X4_7_0 + X5_7_0
   + X6_7_0 + X8_7_0 + X9_7_0 + X10_7_0 + X11_7_0 + X12_7_0 = 1
 Constraint2_8: X0_8_0 + X1_8_0 + X2_8_0 + X3_8_0 + X4_8_0 + X5_8_0
   + X6_8_0 + X7_8_0 + X9_8_0 + X10_8_0 + X11_8_0 + X12_8_0 = 1
 Constraint2_9: X0_9_0 + X1_9_0 + X2_9_0 + X3_9_0 + X4_9_0 + X5_9_0
   + X6_9_0 + X7_9_0 + X8_9_0 + X10_9_0 + X11_9_0 + X12_9_0 = 1
 Constraint2_10: X0_10_0 + X1_10_0 + X2_10_0 + X3_10_0 + X4_10_0 + X5_10_0
   + X6_10_0 + X7_10_0 + X8_10_0 + X9_10_0 + X11_10_0 + X12_10_0 = 1
 Constraint2_11: X0_11_0 + X1_11_0 + X2_11_0 + X3_11_0 + X4_11_0 + X5_11_0
   + X6_11_0 + X7_11_0 + X8_11_0 + X9_11_0 + X10_11_0 + X12_11_0 = 1
 Constraint2_12: X0_12_0 + X1_12_0 + X2_12_0 + X3_12_0 + X4_12_0 + X5_12_0
   + X6_12_0 + X7_12_0 + X8_12_0 + X9_12_0 + X10_12_0 + X11_12_0 = 1
 q1: f0_1_0 - f1_0_0 - f1_2_0 - f1_3_0 - f1_4_0 - f1_5_0 - f1_6_0 - f1_7_0
   - f1_8_0 - f1_9_0 - f1_10_0 - f1_11_0 - f1_12_0 + f2_1_0 + f3_1_0
   + f4_1_0 + f5_1_0 + f6_1_0 + f7_1_0 + f8_1_0 + f9_1_0 + f10_1_0
   + f11_1_0 + f12_1_0 = 1200
 q2: f0_2_0 + f1_2_0 - f2_0_0 - f2_1_0 - f2_3_0 - f2_4_0 - f2_5_0 - f2_6_0
   - f2_7_0 - f2_8_0 - f2_9_0 - f2_10_0 - f2_11_0 - f2_12_0 + f3_2_0
   + f4_2_0 + f5_2_0 + f6_2_0 + f7_2_0 + f8_2_0 + f9_2_0 + f10_2_0
   + f11_2_0 + f12_2_0 = 1700
 q3: f0_3_0 + f1_3_0 + f2_3_0 - f3_0_0 - f3_1_0 - f3_2_0 - f3_4_0 - f3_5_0
   - f3_6_0 - f3_7_0 - f3_8_0 - f3_9_0 - f3_10_0 - f3_11_0 - f3_12_0
   + f4_3_0 + f5_3_0 + f6_3_0 + f7_3_0 + f8_3_0 + f9_3_0 + f10_3_0
   + f11_3_0 + f12_3_0 = 1500
 q4: f0_4_0 + f1_4_0 + f2_4_0 + f3_4_0 - f4_0_0 - f4_1_0 - f4_2_0 - f4_3_0
   - f4_5_0 - f4_6_0 - f4_7_0 - f4_8_0 - f4_9_0 - f4_10_0 - f4_11_0
   - f4_12_0 + f5_4_0 + f6_4_0 + f7_4_0 + f8_4_0 + f9_4_0 + f10_4_0
   + f11_4_0 + f12_4_0 = 1400
 q5: f0_5_0 + f1_5_0 + f2_5_0 + f3_5_0 + f4_5_0 - f5_0_0 - f5_1_0 - f5_2_0
   - f5_3_0 - f5_4_0 - f5_6_0 - f5_7_0 - f5_8_0 - f5_9_0 - f5_10_0
   - f5_11_0 - f5_12_0 + f6_5_0 + f7_5_0 + f8_5_0 + f9_5_0 + f10_5_0
   + f11_5_0 + f12_5_0 = 1700
 q6: f0_6_0 + f1_6_0 + f2_6_0 + f3_6_0 + f4_6_0 + f5_6_0 - f6_0_0 - f6_1_0
   - f6_2_0 - f6_3_0 - f6_4_0 - f6_5_0 - f6_7_0 - f6_8_0 - f6_9_0 - f6_10_0
   - f6_11_0 - f6_12_0 + f7_6_0 + f8_6_0 + f9_6_0 + f10_6_0 + f11_6_0
   + f12_6_0 = 1400
 q7: f0_7_0 + f1_7_0 + f2_7_0 + f3_7_0 + f4_7_0 + f5_7_0 + f6_7_0 - f7_0_0
   - f7_1_0 - f7_2_0 - f7_3_0 - f7_4_0 - f7_5_0 - f7_6_0 - f7_8_0 - f7_9_0
   - f7_10_0 - f7_11_0 - f7_12_0 + f8_7_0 + f9_7_0 + f10_7_0 + f11_7_0
   + f12_7_0 = 1200
 q8: f0_8_0 + f1_8_0 + f2_8_0 + f3_8_0 + f4_8_0 + f5_8_0 + f6_8_0 + f7_8_0
   - f8_0_0 - f8_1_0 - f8_2_0 - f8_3_0 - f8_4_0 - f8_5_0 - f8_6_0 - f8_7_0
   - f8_9_0 - f8_10_0 - f8_11_0 - f8_12_0 + f9_8_0 + f10_8_0 + f11_8_0
   + f12_8_0 = 1900
 q9: f0_9_0 + f1_9_0 + f2_9_0 + f3_9_0 + f4_9_0 + f5_9_0 + f6_9_0 + f7_9_0
   + f8_9_0 - f9_0_0 - f9_1_0 - f9_2_0 - f9_3_0 - f9_4_0 - f9_5_0 - f9_6_0
   - f9_7_0 - f9_8_0 - f9_10_0 - f9_11_0 - f9_12_0 + f10_9_0 + f11_9_0
   + f12_9_0 = 1800
 q10: f0_10_0 + f1_10_0 + f2_10_0 + f3_10_0 + f4_10_0 + f5_10_0 + f6_10_0
   + f7_10_0 + f8_10_0 + f9_10_0 - f10_0_0 - f10_1_0 - f10_2_0 - f10_3_0
   - f10_4_0 - f10_5_0 - f10_6_0 - f10_7_0 - f10_8_0 - f10_9_0 - f10_11_0
   - f10_12_0 + f11_10_0 + f12_10_0 = 1600
 q11: f0_11_0 + f1_11_0 + f2_11_0 + f3_11_0 + f4_11_0 + f5_11_0 + f6_11_0
   + f7_11_0 + f8_11_0 + f9_11_0 + f10_11_0 - f11_0_0 - f11_1_0 - f11_2_0
   - f11_3_0 - f11_4_0 - f11_5_0 - f11_6_0 - f11_7_0 - f11_8_0 - f11_9_0
   - f11_10_0 - f11_12_0 + f12_11_0 = 1700
 q12: f0_12_0 + f1_12_0 + f2_12_0 + f3_12_0 + f4_12_0 + f5_12_0 + f6_12_0
   + f7_12_0 + f8_12_0 + f9_12_0 + f10_12_0 + f11_12_0 - f12_0_0 - f12_1_0
   - f12_2_0 - f12_3_0 - f12_4_0 - f12_5_0 - f12_6_0 - f12_7_0 - f12_8_0
   - f12_9_0 - f12_10_0 - f12_11_0 = 1100
 constraint4_010: 1200 X0_1_0 - f0_1_0 <= 0
 constraint4_020: 1700 X0_2_0 - f0_2_0 <= 0
 constraint4_030: 1500 X0_3_0 - f0_3_0 <= 0
 constraint4_040: 1400 X0_4_0 - f0_4_0 <= 0
 constraint4_050: 1700 X0_5_0 - f0_5_0 <= 0
 constraint4_060: 1400 X0_6_0 - f0_6_0 <= 0
 constraint4_070: 1200 X0_7_0 - f0_7_0 <= 0
 constraint4_080: 1900 X0_8_0 - f0_8_0 <= 0
 constraint4_090: 1800 X0_9_0 - f0_9_0 <= 0
 constraint4_0100: 1600 X0_10_0 - f0_10_0 <= 0
 constraint4_0110: 1700 X0_11_0 - f0_11_0 <= 0
 constraint4_0120: 1100 X0_12_0 - f0_12_0 <= 0
 constraint4_100: - f1_0_0 <= 0
 constraint4_120: 1700 X1_2_0 - f1_2_0 <= 0
 constraint4_130: 1500 X1_3_0 - f1_3_0 <= 0
 constraint4_140: 1400 X1_4_0 - f1_4_0 <= 0
 constraint4_150: 1700 X1_5_0 - f1_5_0 <= 0
 constraint4_160: 1400 X1_6_0 - f1_6_0 <= 0
 constraint4_170: 1200 X1_7_0 - f1_7_0 <= 0
 constraint4_180: 1900 X1_8_0 - f1_8_0 <= 0
 constraint4_190: 1800 X1_9_0 - f1_9_0 <= 0
 constraint4_1100: 1600 X1_10_0 - f1_10_0 <= 0
 constraint4_1110: 1700 X1_11_0 - f1_11_0 <= 0
 constraint4_1120: 1100 X1_12_0 - f1_12_0 <= 0
 constraint4_200: - f2_0_0 <= 0
 constraint4_210: 1200 X2_1_0 - f2_1_0 <= 0
 constraint4_230: 1500 X2_3_0 - f2_3_0 <= 0
 constraint4_240: 1400 X2_4_0 - f2_4_0 <= 0
 constraint4_250: 1700 X2_5_0 - f2_5_0 <= 0
 constraint4_260: 1400 X2_6_0 - f2_6_0 <= 0
 constraint4_270: 1200 X2_7_0 - f2_7_0 <= 0
 constraint4_280: 1900 X2_8_0 - f2_8_0 <= 0
 constraint4_290: 1800 X2_9_0 - f2_9_0 <= 0
 constraint4_2100: 1600 X2_10_0 - f2_10_0 <= 0
 constraint4_2110: 1700 X2_11_0 - f2_11_0 <= 0
 constraint4_2120: 1100 X2_12_0 - f2_12_0 <= 0
 constraint4_300: - f3_0_0 <= 0
 constraint4_310: 1200 X3_1_0 - f3_1_0 <= 0
 constraint4_320: 1700 X3_2_0 - f3_2_0 <= 0
 constraint4_340: 1400 X3_4_0 - f3_4_0 <= 0
 constraint4_350: 1700 X3_5_0 - f3_5_0 <= 0
 constraint4_360: 1400 X3_6_0 - f3_6_0 <= 0
 constraint4_370: 1200 X3_7_0 - f3_7_0 <= 0
 constraint4_380: 1900 X3_8_0 - f3_8_0 <= 0
 constraint4_390: 1800 X3_9_0 - f3_9_0 <= 0
 constraint4_3100: 1600 X3_10_0 - f3_10_0 <= 0
 constraint4_3110: 1700 X3_11_0 - f3_11_0 <= 0
 constraint4_3120: 1100 X3_12_0 - f3_12_0 <= 0
 constraint4_400: - f4_0_0 <= 0
 constraint4_410: 1200 X4_1_0 - f4_1_0 <= 0
 constraint4_420: 1700 X4_2_0 - f4_2_0 <= 0
 constraint4_430: 1500 X4_3_0 - f4_3_0 <= 0
 constraint4_450: 1700 X4_5_0 - f4_5_0 <= 0
 constraint4_460: 1400 X4_6_0 - f4_6_0 <= 0
 constraint4_470: 1200 X4_7_0 - f4_7_0 <= 0
 constraint4_480: 1900 X4_8_0 - f4_8_0 <= 0
 constraint4_490: 1800 X4_9_0 - f4_9_0 <= 0
 constraint4_4100: 1600 X4_10_0 - f4_10_0 <= 0
 constraint4_4110: 1700 X4_11_0 - f4_11_0 <= 0
 constraint4_4120: 1100 X4_12_0 - f4_12_0 <= 0
 constraint4_500: - f5_0_0 <= 0
 constraint4_510: 1200 X5_1_0 - f5_1_0 <= 0
 constraint4_520: 1700 X5_2_0 - f5_2_0 <= 0
 constraint4_530: 1500 X5_3_0 - f5_3_0 <= 0
 constraint4_540: 1400 X5_4_0 - f5_4_0 <= 0
 constraint4_560: 1400 X5_6_0 - f5_6_0 <= 0
 constraint4_570: 1200 X5_7_0 - f5_7_0 <= 0
 constraint4_580: 1900 X5_8_0 - f5_8_0 <= 0
 constraint4_590: 1800 X5_9_0 - f5_9_0 <= 0
 constraint4_5100: 1600 X5_10_0 - f5_10_0 <= 0
 constraint4_5110: 1700 X5_11_0 - f5_11_0 <= 0
 constraint4_5120: 1100 X5_12_0 - f5_12_0 <= 0
 constraint4_600: - f6_0_0 <= 0
 constraint4_610: 1200 X6_1_0 - f6_1_0 <= 0
 constraint4_620: 1700 X6_2_0 - f6_2_0 <= 0
 constraint4_630: 1500 X6_3_0 - f6_3_0 <= 0
 constraint4_640: 1400 X6_4_0 - f6_4_0 <= 0
 constraint4_650: 1700 X6_5_0 - f6_5_0 <= 0
 constraint4_670: 1200 X6_7_0 - f6_7_0 <= 0
 constraint4_680: 1900 X6_8_0 - f6_8_0 <= 0
 constraint4_690: 1800 X6_9_0 - f6_9_0 <= 0
 constraint4_6100: 1600 X6_10_0 - f6_10_0 <= 0
 constraint4_6110: 1700 X6_11_0 - f6_11_0 <= 0
 constraint4_6120: 1100 X6_12_0 - f6_12_0 <= 0
 constraint4_700: - f7_0_0 <= 0
 constraint4_710: 1200 X7_1_0 - f7_1_0 <= 0
 constraint4_720: 1700 X7_2_0 - f7_2_0 <= 0
 constraint4_730: 1500 X7_3_0 - f7_3_0 <= 0
 constraint4_740: 1400 X7_4_0 - f7_4_0 <= 0
 constraint4_750: 1700 X7_5_0 - f7_5_0 <= 0
 constraint4_760: 1400 X7_6_0 - f7_6_0 <= 0
 constraint4_780: 1900 X7_8_0 - f7_8_0 <= 0
 constraint4_790: 1800 X7_9_0 - f7_9_0 <= 0
 constraint4_7100: 1600 X7_10_0 - f7_10_0 <= 0
 constraint4_7110: 1700 X7_11_0 - f7_11_0 <= 0
 constraint4_7120: 1100 X7_12_0 - f7_12_0 <= 0
 constraint4_800: - f8_0_0 <= 0
 constraint4_810: 1200 X8_1_0 - f8_1_0 <= 0
 constraint4_820: 1700 X8_2_0 - f8_2_0 <= 0
 constraint4_830: 1500 X8_3_0 - f8_3_0 <= 0
 constraint4_840: 1400 X8_4_0 - f8_4_0 <= 0
 constraint4_850: 1700 X8_5_0 - f8_5_0 <= 0
 constraint4_860: 1400 X8_6_0 - f8_6_0 <= 0
 constraint4_870: 1200 X8_7_0 - f8_7_0 <= 0
 constraint4_890: 1800 X8_9_0 - f8_9_0 <= 0
 constraint4_8100: 1600 X8_10_0 - f8_10_0 <= 0
 constraint4_8110: 1700 X8_11_0 - f8_11_0 <= 0
 constraint4_8120: 1100 X8_12_0 - f8_12_0 <= 0
 constraint4_900: - f9_0_0 <= 0
 constraint4_910: 1200 X9_1_0 - f9_1_0 <= 0
 constraint4_920: 1700 X9_2_0 - f9_2_0 <= 0
 constraint4_930: 1500 X9_3_0 - f9_3_0 <= 0
 constraint4_940: 1400 X9_4_0 - f9_4_0 <= 0
 constraint4_950: 1700 X9_5_0 - f9_5_0 <= 0
 constraint4_960: 1400 X9_6_0 - f9_6_0 <= 0
 constraint4_970: 1200 X9_7_0 - f9_7_0 <= 0
 constraint4_980: 1900 X9_8_0 - f9_8_0 <= 0
 constraint4_9100: 1600 X9_10_0 - f9_10_0 <= 0
 constraint4_9110: 1700 X9_11_0 - f9_11_0 <= 0
 constraint4_9120: 1100 X9_12_0 - f9_12_0 <= 0
 constraint4_1000: - f10_0_0 <= 0
 constraint4_1010: 1200 X10_1_0 - f10_1_0 <= 0
 constraint4_1020: 1700 X10_2_0 - f10_2_0 <= 0
 constraint4_1030: 1500 X10_3_0 - f10_3_0 <= 0
 constraint4_1040: 1400 X10_4_0 - f10_4_0 <= 0
 constraint4_1050: 1700 X10_5_0 - f10_5_0 <= 0
 constraint4_1060: 1400 X10_6_0 - f10_6_0 <= 0
 constraint4_1070: 1200 X10_7_0 - f10_7_0 <= 0
 constraint4_1080: 1900 X10_8_0 - f10_8_0 <= 0
 constraint4_1090: 1800 X10_9_0 - f10_9_0 <= 0
 constraint4_10110: 1700 X10_11_0 - f10_11_0 <= 0
 constraint4_10120: 1100 X10_12_0 - f10_12_0 <= 0
 constraint4_1100: - f11_0_0 <= 0
 constraint4_1110: 1200 X11_1_0 - f11_1_0 <= 0
 constraint4_1120: 1700 X11_2_0 - f11_2_0 <= 0
 constraint4_1130: 1500 X11_3_0 - f11_3_0 <= 0
 constraint4_1140: 1400 X11_4_0 - f11_4_0 <= 0
 constraint4_1150: 1700 X11_5_0 - f11_5_0 <= 0
 constraint4_1160: 1400 X11_6_0 - f11_6_0 <= 0
 constraint4_1170: 1200 X11_7_0 - f11_7_0 <= 0
 constraint4_1180: 1900 X11_8_0 - f11_8_0 <= 0
 constraint4_1190: 1800 X11_9_0 - f11_9_0 <= 0
 constraint4_11100: 1600 X11_10_0 - f11_10_0 <= 0
 constraint4_11120: 1100 X11_12_0 - f11_12_0 <= 0
 constraint4_1200: - f12_0_0 <= 0
 constraint4_1210: 1200 X12_1_0 - f12_1_0 <= 0
 constraint4_1220: 1700 X12_2_0 - f12_2_0 <= 0
 constraint4_1230: 1500 X12_3_0 - f12_3_0 <= 0
 constraint4_1240: 1400 X12_4_0 - f12_4_0 <= 0
 constraint4_1250: 1700 X12_5_0 - f12_5_0 <= 0
 constraint4_1260: 1400 X12_6_0 - f12_6_0 <= 0
 constraint4_1270: 1200 X12_7_0 - f12_7_0 <= 0
 constraint4_1280: 1900 X12_8_0 - f12_8_0 <= 0
 constraint4_1290: 1800 X12_9_0 - f12_9_0 <= 0
 constraint4_12100: 1600 X12_10_0 - f12_10_0 <= 0
 constraint4_12110: 1700 X12_11_0 - f12_11_0 <= 0
 constraint5_010: 6000 X0_1_0 - f0_1_0 >= 0
 constraint5_020: 6000 X0_2_0 - f0_2_0 >= 0
 constraint5_030: 6000 X0_3_0 - f0_3_0 >= 0
 constraint5_040: 6000 X0_4_0 - f0_4_0 >= 0
 constraint5_050: 6000 X0_5_0 - f0_5_0 >= 0
 constraint5_060: 6000 X0_6_0 - f0_6_0 >= 0
 constraint5_070: 6000 X0_7_0 - f0_7_0 >= 0
 constraint5_080: 6000 X0_8_0 - f0_8_0 >= 0
 constraint5_090: 6000 X0_9_0 - f0_9_0 >= 0
 constraint5_0100: 6000 X0_10_0 - f0_10_0 >= 0
 constraint5_0110: 6000 X0_11_0 - f0_11_0 >= 0
 constraint5_0120: 6000 X0_12_0 - f0_12_0 >= 0
 constraint5_100: 4800 X1_0_0 - f1_0_0 >= 0
 constraint5_120: 4800 X1_2_0 - f1_2_0 >= 0
 constraint5_130: 4800 X1_3_0 - f1_3_0 >= 0
 constraint5_140: 4800 X1_4_0 - f1_4_0 >= 0
 constraint5_150: 4800 X1_5_0 - f1_5_0 >= 0
 constraint5_160: 4800 X1_6_0 - f1_6_0 >= 0
 constraint5_170: 4800 X1_7_0 - f1_7_0 >= 0
 constraint5_180: 4800 X1_8_0 - f1_8_0 >= 0
 constraint5_190: 4800 X1_9_0 - f1_9_0 >= 0
 constraint5_1100: 4800 X1_10_0 - f1_10_0 >= 0
 constraint5_1110: 4800 X1_11_0 - f1_11_0 >= 0
 constraint5_1120: 4800 X1_12_0 - f1_12_0 >= 0
 constraint5_200: 4300 X2_0_0 - f2_0_0 >= 0
 constraint5_210: 4300 X2_1_0 - f2_1_0 >= 0
 constraint5_230: 4300 X2_3_0 - f2_3_0 >= 0
 constraint5_240: 4300 X2_4_0 - f2_4_0 >= 0
 constraint5_250: 4300 X2_5_0 - f2_5_0 >= 0
 constraint5_260: 4300 X2_6_0 - f2_6_0 >= 0
 constraint5_270: 4300 X2_7_0 - f2_7_0 >= 0
 constraint5_280: 4300 X2_8_0 - f2_8_0 >= 0
 constraint5_290: 4300 X2_9_0 - f2_9_0 >= 0
 constraint5_2100: 4300 X2_10_0 - f2_10_0 >= 0
 constraint5_2110: 4300 X2_11_0 - f2_11_0 >= 0
 constraint5_2120: 4300 X2_12_0 - f2_12_0 >= 0
 constraint5_300: 4500 X3_0_0 - f3_0_0 >= 0
 constraint5_310: 4500 X3_1_0 - f3_1_0 >= 0
 constraint5_320: 4500 X3_2_0 - f3_2_0 >= 0
 constraint5_340: 4500 X3_4_0 - f3_4_0 >= 0
 constraint5_350: 4500 X3_5_0 - f3_5_0 >= 0
 constraint5_360: 4500 X3_6_0 - f3_6_0 >= 0
 constraint5_370: 4500 X3_7_0 - f3_7_0 >= 0
 constraint5_380: 4500 X3_8_0 - f3_8_0 >= 0
 constraint5_390: 4500 X3_9_0 - f3_9_0 >= 0
 constraint5_3100: 4500 X3_10_0 - f3_10_0 >= 0
 constraint5_3110: 4500 X3_11_0 - f3_11_0 >= 0
 constraint5_3120: 4500 X3_12_0 - f3_12_0 >= 0
 constraint5_400: 4600 X4_0_0 - f4_0_0 >= 0
 constraint5_410: 4600 X4_1_0 - f4_1_0 >= 0
 constraint5_420: 4600 X4_2_0 - f4_2_0 >= 0
 constraint5_430: 4600 X4_3_0 - f4_3_0 >= 0
 constraint5_450: 4600 X4_5_0 - f4_5_0 >= 0
 constraint5_460: 4600 X4_6_0 - f4_6_0 >= 0
 constraint5_470: 4600 X4_7_0 - f4_7_0 >= 0
 constraint5_480: 4600 X4_8_0 - f4_8_0 >= 0
 constraint5_490: 4600 X4_9_0 - f4_9_0 >= 0
 constraint5_4100: 4600 X4_10_0 - f4_10_0 >= 0
 constraint5_4110: 4600 X4_11_0 - f4_11_0 >= 0
 constraint5_4120: 4600 X4_12_0 - f4_12_0 >= 0
 constraint5_500: 4300 X5_0_0 - f5_0_0 >= 0
 constraint5_510: 4300 X5_1_0 - f5_1_0 >= 0
 constraint5_520: 4300 X5_2_0 - f5_2_0 >= 0
 constraint5_530: 4300 X5_3_0 - f5_3_0 >= 0
 constraint5_540: 4300 X5_4_0 - f5_4_0 >= 0
 constraint5_560: 4300 X5_6_0 - f5_6_0 >= 0
 constraint5_570: 4300 X5_7_0 - f5_7_0 >= 0
 constraint5_580: 4300 X5_8_0 - f5_8_0 >= 0
 constraint5_590: 4300 X5_9_0 - f5_9_0 >= 0
 constraint5_5100: 4300 X5_10_0 - f5_10_0 >= 0
 constraint5_5110: 4300 X5_11_0 - f5_11_0 >= 0
 constraint5_5120: 4300 X5_12_0 - f5_12_0 >= 0
 constraint5_600: 4600 X6_0_0 - f6_0_0 >= 0
 constraint5_610: 4600 X6_1_0 - f6_1_0 >= 0
 constraint5_620: 4600 X6_2_0 - f6_2_0 >= 0
 constraint5_630: 4600 X6_3_0 - f6_3_0 >= 0
 constraint5_640: 4600 X6_4_0 - f6_4_0 >= 0
 constraint5_650: 4600 X6_5_0 - f6_5_0 >= 0
 constraint5_670: 4600 X6_7_0 - f6_7_0 >= 0
 constraint5_680: 4600 X6_8_0 - f6_8_0 >= 0
 constraint5_690: 4600 X6_9_0 - f6_9_0 >= 0
 constraint5_6100: 4600 X6_10_0 - f6_10_0 >= 0
 constraint5_6110: 4600 X6_11_0 - f6_11_0 >= 0
 constraint5_6120: 4600 X6_12_0 - f6_12_0 >= 0
 constraint5_700: 4800 X7_0_0 - f7_0_0 >= 0
 constraint5_710: 4800 X7_1_0 - f7_1_0 >= 0
 constraint5_720: 4800 X7_2_0 - f7_2_0 >= 0
 constraint5_730: 4800 X7_3_0 - f7_3_0 >= 0
 constraint5_740: 4800 X7_4_0 - f7_4_0 >= 0
 constraint5_750: 4800 X7_5_0 - f7_5_0 >= 0
 constraint5_760: 4800 X7_6_0 - f7_6_0 >= 0
 constraint5_780: 4800 X7_8_0 - f7_8_0 >= 0
 constraint5_790: 4800 X7_9_0 - f7_9_0 >= 0
 constraint5_7100: 4800 X7_10_0 - f7_10_0 >= 0
 constraint5_7110: 4800 X7_11_0 - f7_11_0 >= 0
 constraint5_7120: 4800 X7_12_0 - f7_12_0 >= 0
 constraint5_800: 4100 X8_0_0 - f8_0_0 >= 0
 constraint5_810: 4100 X8_1_0 - f8_1_0 >= 0
 constraint5_820: 4100 X8_2_0 - f8_2_0 >= 0
 constraint5_830: 4100 X8_3_0 - f8_3_0 >= 0
 constraint5_840: 4100 X8_4_0 - f8_4_0 >= 0
 constraint5_850: 4100 X8_5_0 - f8_5_0 >= 0
 constraint5_860: 4100 X8_6_0 - f8_6_0 >= 0
 constraint5_870: 4100 X8_7_0 - f8_7_0 >= 0
 constraint5_890: 4100 X8_9_0 - f8_9_0 >= 0
 constraint5_8100: 4100 X8_10_0 - f8_10_0 >= 0
 constraint5_8110: 4100 X8_11_0 - f8_11_0 >= 0
 constraint5_8120: 4100 X8_12_0 - f8_12_0 >= 0
 constraint5_900: 4200 X9_0_0 - f9_0_0 >= 0
 constraint5_910: 4200 X9_1_0 - f9_1_0 >= 0
 constraint5_920: 4200 X9_2_0 - f9_2_0 >= 0
 constraint5_930: 4200 X9_3_0 - f9_3_0 >= 0
 constraint5_940: 4200 X9_4_0 - f9_4_0 >= 0
 constraint5_950: 4200 X9_5_0 - f9_5_0 >= 0
 constraint5_960: 4200 X9_6_0 - f9_6_0 >= 0
 constraint5_970: 4200 X9_7_0 - f9_7_0 >= 0
 constraint5_980: 4200 X9_8_0 - f9_8_0 >= 0
 constraint5_9100: 4200 X9_10_0 - f9_10_0 >= 0
 constraint5_9110: 4200 X9_11_0 - f9_11_0 >= 0
 constraint5_9120: 4200 X9_12_0 - f9_12_0 >= 0
 constraint5_1000: 4400 X10_0_0 - f10_0_0 >= 0
 constraint5_1010: 4400 X10_1_0 - f10_1_0 >= 0
 constraint5_1020: 4400 X10_2_0 - f10_2_0 >= 0
 constraint5_1030: 4400 X10_3_0 - f10_3_0 >= 0
 constraint5_1040: 4400 X10_4_0 - f10_4_0 >= 0
 constraint5_1050: 4400 X10_5_0 - f10_5_0 >= 0
 constraint5_1060: 4400 X10_6_0 - f10_6_0 >= 0
 constraint5_1070: 4400 X10_7_0 - f10_7_0 >= 0
 constraint5_1080: 4400 X10_8_0 - f10_8_0 >= 0
 constraint5_1090: 4400 X10_9_0 - f10_9_0 >= 0
 constraint5_10110: 4400 X10_11_0 - f10_11_0 >= 0
 constraint5_10120: 4400 X10_12_0 - f10_12_0 >= 0
 constraint5_1100: 4300 X11_0_0 - f11_0_0 >= 0
 constraint5_1110: 4300 X11_1_0 - f11_1_0 >= 0
 constraint5_1120: 4300 X11_2_0 - f11_2_0 >= 0
 constraint5_1130: 4300 X11_3_0 - f11_3_0 >= 0
 constraint5_1140: 4300 X11_4_0 - f11_4_0 >= 0
 constraint5_1150: 4300 X11_5_0 - f11_5_0 >= 0
 constraint5_1160: 4300 X11_6_0 - f11_6_0 >= 0
 constraint5_1170: 4300 X11_7_0 - f11_7_0 >= 0
 constraint5_1180: 4300 X11_8_0 - f11_8_0 >= 0
 constraint5_1190: 4300 X11_9_0 - f11_9_0 >= 0
 constraint5_11100: 4300 X11_10_0 - f11_10_0 >= 0
 constraint5_11120: 4300 X11_12_0 - f11_12_0 >= 0
 constraint5_1200: 4900 X12_0_0 - f12_0_0 >= 0
 constraint5_1210: 4900 X12_1_0 - f12_1_0 >= 0
 constraint5_1220: 4900 X12_2_0 - f12_2_0 >= 0
 constraint5_1230: 4900 X12_3_0 - f12_3_0 >= 0
 constraint5_1240: 4900 X12_4_0 - f12_4_0 >= 0
 constraint5_1250: 4900 X12_5_0 - f12_5_0 >= 0
 constraint5_1260: 4900 X12_6_0 - f12_6_0 >= 0
 constraint5_1270: 4900 X12_7_0 - f12_7_0 >= 0
 constraint5_1280: 4900 X12_8_0 - f12_8_0 >= 0
 constraint5_1290: 4900 X12_9_0 - f12_9_0 >= 0
 constraint5_12100: 4900 X12_10_0 - f12_10_0 >= 0
 constraint5_12110: 4900 X12_11_0 - f12_11_0 >= 0
 constraint6_0: X0_1_0 + X0_2_0 + X0_3_0 + X0_4_0 + X0_5_0 + X0_6_0
   + X0_7_0 + X0_8_0 + X0_9_0 + X0_10_0 + X0_11_0 + X0_12_0 <= 60
Bounds
Binaries
 X0_1_0 X0_2_0 X0_3_0 X0_4_0 X0_5_0 X0_6_0 X0_7_0 X0_8_0 X0_9_0 X0_10_0
 X0_11_0 X0_12_0 X1_0_0 X1_2_0 X1_3_0 X1_4_0 X1_5_0 X1_6_0 X1_7_0 X1_8_0
 X1_9_0 X1_10_0 X1_11_0 X1_12_0 X2_0_0 X2_1_0 X2_3_0 X2_4_0 X2_5_0 X2_6_0
 X2_7_0 X2_8_0 X2_9_0 X2_10_0 X2_11_0 X2_12_0 X3_0_0 X3_1_0 X3_2_0 X3_4_0
 X3_5_0 X3_6_0 X3_7_0 X3_8_0 X3_9_0 X3_10_0 X3_11_0 X3_12_0 X4_0_0 X4_1_0
 X4_2_0 X4_3_0 X4_5_0 X4_6_0 X4_7_0 X4_8_0 X4_9_0 X4_10_0 X4_11_0 X4_12_0
 X5_0_0 X5_1_0 X5_2_0 X5_3_0 X5_4_0 X5_6_0 X5_7_0 X5_8_0 X5_9_0 X5_10_0
 X5_11_0 X5_12_0 X6_0_0 X6_1_0 X6_2_0 X6_3_0 X6_4_0 X6_5_0 X6_7_0 X6_8_0
 X6_9_0 X6_10_0 X6_11_0 X6_12_0 X7_0_0 X7_1_0 X7_2_0 X7_3_0 X7_4_0 X7_5_0
 X7_6_0 X7_8_0 X7_9_0 X7_10_0 X7_11_0 X7_12_0 X8_0_0 X8_1_0 X8_2_0 X8_3_0
 X8_4_0 X8_5_0 X8_6_0 X8_7_0 X8_9_0 X8_10_0 X8_11_0 X8_12_0 X9_0_0 X9_1_0
 X9_2_0 X9_3_0 X9_4_0 X9_5_0 X9_6_0 X9_7_0 X9_8_0 X9_10_0 X9_11_0 X9_12_0
 X10_0_0 X10_1_0 X10_2_0 X10_3_0 X10_4_0 X10_5_0 X10_6_0 X10_7_0 X10_8_0
 X10_9_0 X10_11_0 X10_12_0 X11_0_0 X11_1_0 X11_2_0 X11_3_0 X11_4_0 X11_5_0
 X11_6_0 X11_7_0 X11_8_0 X11_9_0 X11_10_0 X11_12_0 X12_0_0 X12_1_0 X12_2_0
 X12_3_0 X12_4_0 X12_5_0 X12_6_0 X12_7_0 X12_8_0 X12_9_0 X12_10_0 X12_11_0
End
